N = 100;
MinK = 10;
Capacity = 200;

Scale = 10;
DistanceRoundingMode = Floor;
X = array1d(0..N, [40, 45, 45, 42, 42, 42, 40, 40, 38, 38, 35, 35, 25, 22, 22, 20, 20, 18, 15, 15, 30, 30, 28, 28, 25, 25, 25, 23, 23, 20, 20, 10, 10, 8, 8, 5, 5, 2, 0, 0, 35, 35, 33, 33, 32, 30, 30, 30, 28, 28, 26, 25, 25, 44, 42, 42, 40, 40, 38, 38, 35, 50, 50, 50, 48, 48, 47, 47, 45, 45, 95, 95, 53, 92, 53, 45, 90, 88, 88, 87, 85, 85, 75, 72, 70, 68, 66, 65, 65, 63, 60, 60, 67, 65, 65, 62, 60, 60, 58, 55, 55]);
Y = array1d(0..N, [50, 68, 70, 66, 68, 65, 69, 66, 68, 70, 66, 69, 85, 75, 85, 80, 85, 75, 75, 80, 50, 52, 52, 55, 50, 52, 55, 52, 55, 50, 55, 35, 40, 40, 45, 35, 45, 40, 40, 45, 30, 32, 32, 35, 30, 30, 32, 35, 30, 35, 32, 30, 35, 5, 10, 15, 5, 15, 5, 15, 5, 30, 35, 40, 30, 40, 35, 40, 30, 35, 30, 35, 30, 30, 35, 65, 35, 30, 35, 30, 25, 35, 55, 55, 58, 60, 55, 55, 60, 58, 55, 60, 85, 85, 82, 80, 80, 85, 75, 80, 85]);

Demands = array1d(1..N, [10, 30, 10, 10, 10, 20, 20, 20, 10, 10, 10, 20, 30, 10, 40, 40, 20, 20, 10, 10, 20, 20, 10, 10, 40, 10, 10, 20, 10, 10, 20, 30, 40, 20, 10, 10, 20, 30, 20, 10, 10, 20, 10, 10, 10, 30, 10, 10, 10, 10, 10, 10, 20, 40, 10, 30, 40, 30, 10, 20, 10, 20, 50, 10, 10, 10, 10, 10, 10, 30, 20, 10, 10, 50, 20, 10, 10, 20, 10, 10, 30, 20, 10, 20, 30, 10, 20, 30, 10, 10, 10, 20, 40, 10, 30, 10, 30, 20, 10, 20]);

ServiceTimes = array1d(1..N, [90, 90, 90, 90, 90, 90, 90, 90, 90, 90, 90, 90, 90, 90, 90, 90, 90, 90, 90, 90, 90, 90, 90, 90, 90, 90, 90, 90, 90, 90, 90, 90, 90, 90, 90, 90, 90, 90, 90, 90, 90, 90, 90, 90, 90, 90, 90, 90, 90, 90, 90, 90, 90, 90, 90, 90, 90, 90, 90, 90, 90, 90, 90, 90, 90, 90, 90, 90, 90, 90, 90, 90, 90, 90, 90, 90, 90, 90, 90, 90, 90, 90, 90, 90, 90, 90, 90, 90, 90, 90, 90, 90, 90, 90, 90, 90, 90, 90, 90, 90]);

TimeWindows = array2d(1..2, 0..N, [|
     0,  850, 758,  16, 665,  15, 572, 108, 200, 480, 294, 387, 597,  30, 504, 317, 412,  34, 127, 222,  10,  850, 758, 665,  15, 107, 572, 199, 480, 292, 387, 129,  31,  33, 694, 224, 601, 319, 411, 506, 203, 111,  19,  16, 296, 481, 389,  947, 573,  944, 758, 666,  851, 227, 132,  37, 321,  35, 413, 606, 506, 481, 200, 105, 573,  13, 761,  12, 666,  853, 332, 237, 388, 425, 293,  943, 142, 519,  50, 610, 705,  47, 305, 212, 401, 494, 116,  25, 587, 680,  20, 773, 315, 407, 221, 128,  36, 502,  30, 692, 597 |
  1236, 1030, 938, 196, 845, 195, 752, 288, 380, 660, 474, 567, 777, 210, 684, 497, 592, 214, 307, 402, 190, 1030, 938, 845, 195, 287, 752, 379, 660, 472, 567, 309, 211, 213, 874, 404, 781, 499, 591, 686, 383, 291, 199, 196, 476, 661, 569, 1127, 753, 1124, 938, 846, 1031, 407, 312, 217, 501, 215, 593, 786, 686, 661, 380, 285, 753, 193, 941, 192, 846, 1033, 512, 417, 568, 605, 473, 1123, 322, 699, 230, 790, 885, 227, 485, 392, 581, 674, 296, 205, 767, 860, 200, 953, 495, 587, 401, 308, 216, 682, 210, 872, 777
|]);
